p wcnf 188 94 95 
1 -144 176 0 
1 183 178 0 
1 -118 -28 0 
1 -149 106 0 
1 119 56 0 
1 9 16 0 
1 -133 -90 0 
1 49 118 0 
1 165 -50 0 
1 -146 -87 0 
1 44 -73 0 
1 14 -135 0 
1 -30 -158 0 
1 -165 85 0 
1 104 7 0 
1 76 177 0 
1 -41 -27 0 
1 -163 -152 0 
1 -149 151 0 
1 75 -24 0 
1 108 122 0 
1 -15 104 0 
1 -152 -102 0 
1 -184 -178 0 
1 -177 58 0 
1 -73 -101 0 
1 127 81 0 
1 -169 -164 0 
1 -60 -44 0 
1 139 34 0 
1 -184 161 0 
1 73 117 0 
1 6 -112 0 
1 -34 16 0 
1 -167 35 0 
1 171 185 0 
1 162 -135 0 
1 2 -62 0 
1 -90 -63 0 
1 -134 -10 0 
1 143 -35 0 
1 -33 -151 0 
1 -107 -20 0 
1 -8 -84 0 
1 53 -139 0 
1 47 163 0 
1 -98 59 0 
1 -128 -144 0 
1 176 -159 0 
1 -113 -175 0 
1 -28 52 0 
1 -124 50 0 
1 -10 -142 0 
1 48 -11 0 
1 -61 -184 0 
1 5 74 0 
1 -23 -135 0 
1 157 70 0 
1 -167 136 0 
1 -101 -104 0 
1 -92 -150 0 
1 182 83 0 
1 -19 -27 0 
1 -77 44 0 
1 77 -126 0 
1 129 180 0 
1 17 -134 0 
1 -6 -122 0 
1 16 -146 0 
1 -61 140 0 
1 -82 -161 0 
1 155 -43 0 
1 -8 -59 0 
1 -100 139 0 
1 25 -7 0 
1 -52 -117 0 
1 134 33 0 
1 111 -146 0 
1 152 -178 0 
1 -8 149 0 
1 -103 13 0 
1 121 -111 0 
1 154 107 0 
1 -54 61 0 
1 -55 151 0 
1 -1 -5 0 
1 -170 107 0 
1 47 -69 0 
1 105 148 0 
1 40 -66 0 
1 85 -124 0 
1 92 99 0 
1 -110 -38 0 
1 107 153 0 
